
481
1000
   800      1
   799      3
   798      2
   797      3
   796      3
   795      2
   793      2
   792      1
   791      3
   789      3
   788      2
   786      2
   785      4
   784      1
   783      5
   782      1
   781      5
   780      1
   779      1
   778      1
   777      1
   776      1
   775      2
   774      2
   772      3
   771      3
   770      1
   769      1
   768      3
   767      2
   766      1
   765      1
   764      2
   763      2
   762      1
   761      6
   760      1
   757      1
   756      1
   754      2
   753      2
   751      3
   750      1
   749      5
   748      3
   747      2
   745      2
   744      1
   743      2
   742      1
   741      1
   740      2
   739      3
   738      2
   737      2
   734      2
   733      1
   732      3
   731      4
   729      1
   728      2
   727      1
   726      1
   725      2
   724      1
   723      4
   721      2
   720      2
   719      2
   718      4
   717      2
   715      4
   714      2
   712      2
   711      3
   710      1
   709      3
   707      2
   706      6
   705      3
   704      2
   702      2
   700      3
   699      3
   698      1
   697      2
   696      2
   695      2
   694      2
   693      2
   692      1
   690      3
   688      1
   686      1
   685      2
   684      5
   683      2
   681      2
   680      1
   679      1
   678      1
   677      2
   676      1
   675      2
   674      1
   673      2
   672      1
   671      4
   670      2
   669      3
   668      1
   667      1
   666      2
   665      1
   664      3
   662      2
   659      1
   658      2
   657      2
   655      2
   653      2
   652      1
   651      2
   650      2
   647      4
   646      1
   644      3
   643      4
   641      3
   640      3
   639      1
   638      2
   637      3
   636      3
   635      3
   634      1
   633      1
   632      3
   631      3
   630      3
   629      1
   628      2
   627      1
   626      2
   624      2
   622      2
   620      1
   619      3
   618      2
   616      1
   615      3
   614      1
   613      2
   612      2
   611      5
   610      1
   609      1
   607      1
   606      1
   604      1
   603      1
   602      2
   601      2
   599      1
   598      2
   597      2
   596      2
   595      3
   594      4
   593      1
   592      1
   591      4
   590      2
   587      1
   585      1
   584      2
   583      2
   582      3
   581      3
   580      1
   579      3
   576      4
   574      3
   573      1
   572      1
   571      1
   570      4
   568      2
   567      2
   566      3
   565      3
   564      3
   563      3
   562      2
   559      1
   558      2
   557      2
   556      2
   555      1
   554      1
   553      2
   552      1
   551      3
   550      3
   549      1
   548      3
   547      3
   543      1
   542      3
   541      2
   540      1
   538      1
   537      1
   535      1
   533      5
   532      2
   531      5
   530      2
   529      1
   528      3
   527      3
   526      1
   525      1
   524      3
   523      1
   522      2
   521      2
   520      3
   518      1
   517      3
   516      2
   515      1
   514      1
   513      1
   512      3
   511      1
   510      1
   509      5
   508      2
   506      2
   505      1
   504      1
   503      3
   502      4
   501      1
   500      2
   499      3
   496      3
   495      3
   494      2
   493      3
   492      1
   491      1
   489      3
   488      4
   487      2
   486      3
   485      2
   482      3
   481      3
   480      2
   479      2
   478      2
   476      3
   475      1
   473      3
   472      1
   471      1
   470      4
   469      3
   468      3
   467      1
   466      2
   465      2
   464      1
   463      2
   462      1
   460      1
   459      1
   456      1
   455      1
   454      3
   453      2
   452      1
   450      3
   449      4
   448      1
   446      2
   444      1
   443      3
   442      2
   441      1
   440      5
   439      4
   437      2
   436      2
   435      4
   434      1
   433      4
   432      3
   430      2
   429      2
   428      3
   427      3
   426      1
   425      3
   424      3
   422      1
   421      1
   420      3
   419      2
   417      5
   416      1
   415      2
   414      2
   413      3
   412      4
   411      1
   410      2
   409      3
   408      2
   407      2
   406      3
   405      1
   404      1
   402      1
   400      1
   399      1
   398      1
   397      1
   395      1
   392      1
   391      3
   390      2
   388      2
   387      1
   386      4
   384      2
   383      3
   382      2
   381      1
   380      2
   378      3
   377      1
   376      3
   375      3
   374      2
   373      1
   370      2
   369      1
   368      4
   367      1
   365      5
   364      2
   362      2
   361      3
   360      2
   359      2
   358      2
   357      1
   356      3
   355      2
   354      3
   353      6
   351      2
   350      1
   349      2
   348      2
   346      1
   345      1
   343      1
   342      1
   341      2
   340      1
   339      1
   337      2
   336      2
   335      1
   334      1
   333      2
   332      2
   328      4
   327      4
   326      1
   325      1
   324      1
   323      1
   321      3
   320      2
   319      3
   318      1
   317      1
   316      2
   315      1
   314      2
   313      1
   310      3
   308      1
   307      2
   306      4
   305      3
   304      3
   303      1
   302      1
   301      3
   296      3
   295      1
   293      2
   292      1
   289      2
   288      1
   286      2
   285      1
   284      3
   281      4
   280      3
   279      3
   278      1
   277      3
   275      3
   274      1
   273      1
   269      1
   268      2
   267      2
   266      3
   265      3
   264      3
   263      2
   262      5
   261      3
   260      1
   258      2
   257      2
   256      2
   254      2
   252      2
   251      2
   250      1
   249      1
   248      1
   247      2
   245      1
   244      1
   243      1
   242      1
   241      2
   240      2
   239      1
   238      4
   237      1
   236      1
   235      1
   234      2
   233      1
   232      2
   231      2
   229      2
   228      2
   227      3
   226      1
   225      1
   223      3
   222      2
   221      1
   220      1
   216      3
   215      1
   214      2
   213      2
   212      1
   211      3
   210      1
   209      1
   208      1
   207      4
   205      3
   204      5
   203      3
   201      3
   200      3




The initial LP solution: time=1.73


File: BPP_1000_1000_0.2_0.8_4.txt  Instance No. 1
Wed Feb 25 13:58:57 2015

LP solution: lpval=519.5 lpbnd=520

1: 0:1 480:1 obj 1\\
3: 1:1 479:1 obj 1\\
2: 2:1 480:1 obj 1\\
3: 3:1 478:1 obj 1\\
3: 4:1 477:1 obj 1\\
2: 5:1 476:1 obj 1\\
2: 6:1 475:1 obj 1\\
1: 7:1 474:1 obj 1\\
1: 8:1 473:1 obj 1\\
2: 8:1 475:1 obj 1\\
3: 9:1 471:1 obj 1\\
1: 10:1 470:1 obj 1\\
1: 10:1 472:1 obj 1\\
2: 11:1 468:1 obj 1\\
1: 12:1 467:1 obj 1\\
2: 12:1 469:1 obj 1\\
1: 12:1 476:1 obj 1\\
1: 13:1 466:1 obj 1\\
2: 14:1 obj 1\\
3: 14:1 466:1 obj 1\\
1: 15:1 477:1 obj 1\\
5: 16:1 477:1 obj 1\\
1: 17:1 465:1 obj 1\\
1: 18:1 464:1 obj 1\\
1: 19:1 463:1 obj 1\\
1: 20:1 462:1 obj 1\\
1: 21:1 462:1 obj 1\\
1: 22:1 obj 1\\
1: 22:1 461:1 obj 1\\
1: 23:1 obj 1\\
1: 23:1 460:1 obj 1\\
1: 24:1 obj 1\\
2: 24:1 458:1 obj 1\\
1: 25:1 obj 1\\
2: 25:1 457:1 obj 1\\
1: 26:1 459:1 obj 1\\
1: 27:1 456:1 obj 1\\
2: 28:1 455:1 obj 1\\
1: 28:1 462:1 obj 1\\
1: 29:1 obj 1\\
1: 29:1 454:1 obj 1\\
1: 30:1 453:1 obj 1\\
1: 31:1 452:1 obj 1\\
1: 32:1 obj 1\\
1: 32:1 451:1 obj 1\\
1: 33:1 obj 1\\
1: 33:1 450:1 obj 1\\
1: 34:1 449:1 obj 1\\
1: 35:1 448:1 obj 1\\
1: 35:1 449:1 obj 1\\
1: 35:1 453:1 obj 1\\
1: 35:1 456:1 obj 1\\
2: 35:1 459:1 obj 1\\
1: 36:1 447:1 obj 1\\
1: 37:1 444:1 obj 1\\
1: 38:1 443:1 obj 1\\
1: 39:1 442:1 obj 1\\
1: 39:1 445:1 obj 1\\
2: 40:1 441:1 obj 1\\
1: 41:1 439:1 obj 1\\
2: 41:1 447:1 obj 1\\
1: 42:1 438:1 obj 1\\
2: 43:1 437:1 obj 1\\
1: 43:1 440:1 obj 1\\
2: 43:1 463:1 obj 1\\
1: 44:1 436:1 obj 1\\
2: 44:1 446:1 obj 1\\
2: 45:1 449:1 obj 1\\
2: 46:1 435:1 obj 1\\
1: 47:1 434:1 obj 1\\
2: 48:1 433:1 obj 1\\
1: 49:1 432:1 obj 1\\
1: 50:1 432:1 obj 1\\
1: 51:1 431:1 obj 1\\
1: 51:1 434:1 obj 1\\
3: 52:1 430:1 obj 1\\
2: 53:1 429:1 obj 1\\
2: 54:1 428:1 obj 1\\
2: 55:1 425:1 obj 1\\
1: 56:1 424:1 obj 1\\
2: 57:1 423:1 obj 1\\
1: 57:1 424:1 obj 1\\
1: 58:1 422:1 obj 1\\
3: 58:1 427:1 obj 1\\
1: 59:1 425:1 obj 1\\
2: 60:1 426:1 obj 1\\
1: 61:1 421:1 obj 1\\
1: 62:1 420:1 obj 1\\
2: 63:1 419:1 obj 1\\
1: 64:1 427:1 obj 1\\
1: 65:1 obj 1\\
3: 65:1 418:1 obj 1\\
2: 66:1 416:1 obj 1\\
2: 67:1 415:1 obj 1\\
2: 68:1 414:1 obj 1\\
1: 69:1 417:1 obj 1\\
3: 69:1 426:1 obj 1\\
2: 70:1 429:1 obj 1\\
1: 71:1 412:1 obj 1\\
3: 71:1 416:1 obj 1\\
2: 72:1 411:1 obj 1\\
1: 73:1 obj 1\\
1: 73:1 410:1 obj 1\\
1: 74:1 obj 1\\
2: 74:1 409:1 obj 1\\
1: 75:1 413:1 obj 1\\
3: 76:1 413:1 obj 1\\
2: 77:1 407:1 obj 1\\
1: 78:1 408:1 obj 1\\
5: 78:1 429:1 obj 1\\
1: 79:1 406:1 obj 1\\
2: 79:1 419:1 obj 1\\
1: 80:1 405:1 obj 1\\
2: 81:1 405:1 obj 1\\
2: 82:1 414:1 obj 1\\
1: 82:1 415:1 obj 1\\
3: 83:1 404:1 obj 1\\
1: 84:1 403:1 obj 1\\
1: 85:1 obj 1\\
1: 85:1 402:1 obj 1\\
2: 86:1 401:1 obj 1\\
2: 87:1 400:1 obj 1\\
2: 88:1 399:1 obj 1\\
2: 89:1 398:1 obj 1\\
1: 90:1 397:1 obj 1\\
3: 91:1 396:1 obj 1\\
1: 92:1 399:1 obj 1\\
1: 93:1 394:1 obj 1\\
1: 94:1 393:1 obj 1\\
1: 94:1 394:1 obj 1\\
2: 95:1 392:1 obj 1\\
1: 95:1 395:1 obj 1\\
2: 95:1 401:1 obj 1\\
1: 96:1 391:1 obj 1\\
1: 96:1 400:1 obj 1\\
2: 97:1 389:1 obj 1\\
1: 98:1 388:1 obj 1\\
1: 99:1 387:1 obj 1\\
1: 100:1 387:1 obj 1\\
1: 101:1 386:1 obj 1\\
1: 101:1 388:1 obj 1\\
1: 102:1 385:1 obj 1\\
1: 103:1 384:1 obj 1\\
1: 103:1 389:1 obj 1\\
1: 104:1 383:1 obj 1\\
2: 105:1 382:1 obj 1\\
1: 106:1 381:1 obj 1\\
3: 107:1 382:1 obj 1\\
1: 107:1 390:1 obj 1\\
2: 108:1 387:1 obj 1\\
3: 109:1 381:1 obj 1\\
1: 110:1 380:1 obj 1\\
1: 111:1 379:1 obj 1\\
1: 112:1 obj 1\\
1: 112:1 378:1 obj 1\\
1: 113:1 377:1 obj 1\\
2: 114:1 376:1 obj 1\\
1: 114:1 379:1 obj 1\\
2: 115:1 375:1 obj 1\\
1: 116:1 372:1 obj 1\\
1: 117:1 obj 1\\
1: 117:1 371:1 obj 1\\
1: 118:1 370:1 obj 1\\
1: 118:1 380:1 obj 1\\
1: 119:1 369:1 obj 1\\
1: 119:1 372:1 obj 1\\
1: 120:1 obj 1\\
1: 120:1 368:1 obj 1\\
1: 121:1 367:1 obj 1\\
2: 122:1 366:1 obj 1\\
1: 123:1 365:1 obj 1\\
1: 123:1 367:1 obj 1\\
3: 124:1 363:1 obj 1\\
1: 125:1 362:1 obj 1\\
3: 126:1 360:1 obj 1\\
1: 127:1 359:1 obj 1\\
1: 127:1 362:1 obj 1\\
2: 127:1 363:1 obj 1\\
2: 128:1 357:1 obj 1\\
1: 128:1 364:1 obj 1\\
2: 129:1 356:1 obj 1\\
1: 129:1 362:1 obj 1\\
1: 130:1 355:1 obj 1\\
2: 131:1 354:1 obj 1\\
2: 132:1 358:1 obj 1\\
1: 132:1 361:1 obj 1\\
1: 133:1 353:1 obj 1\\
1: 133:1 361:1 obj 1\\
3: 134:1 352:1 obj 1\\
1: 135:1 352:1 obj 1\\
1: 136:1 351:1 obj 1\\
3: 137:1 350:1 obj 1\\
1: 138:1 349:1 obj 1\\
1: 138:1 350:1 obj 1\\
1: 138:1 352:1 obj 1\\
2: 139:1 348:1 obj 1\\
1: 139:1 364:1 obj 1\\
1: 140:1 355:1 obj 1\\
1: 141:1 355:1 obj 1\\
1: 141:1 373:1 obj 1\\
1: 142:1 347:1 obj 1\\
2: 143:1 346:1 obj 1\\
2: 144:1 344:1 obj 1\\
2: 145:1 342:1 obj 1\\
1: 147:1 340:1 obj 1\\
2: 147:1 341:1 obj 1\\
2: 148:1 339:1 obj 1\\
1: 149:1 337:1 obj 1\\
3: 150:1 338:1 obj 1\\
1: 151:1 336:1 obj 1\\
1: 152:1 335:1 obj 1\\
2: 153:1 334:1 obj 1\\
1: 154:1 336:1 obj 1\\
1: 154:1 342:1 obj 1\\
3: 154:1 345:1 obj 1\\
1: 155:1 333:1 obj 1\\
1: 156:1 332:1 obj 1\\
1: 157:1 331:1 obj 1\\
1: 158:1 343:1 obj 1\\
1: 159:1 330:1 obj 1\\
1: 160:1 329:1 obj 1\\
1: 161:1 obj 1\\
1: 161:1 328:1 obj 1\\
1: 162:1 327:1 obj 1\\
1: 162:1 337:1 obj 1\\
1: 163:1 326:1 obj 1\\
1: 164:1 325:1 obj 1\\
1: 164:1 336:1 obj 1\\
1: 165:1 332:1 obj 1\\
1: 165:1 344:1 obj 1\\
1: 166:1 324:1 obj 1\\
1: 166:1 336:1 obj 1\\
1: 167:1 323:1 obj 1\\
2: 167:1 333:1 obj 1\\
3: 168:1 322:1 obj 1\\
1: 168:1 332:1 obj 1\\
1: 169:1 321:1 obj 1\\
1: 170:1 320:1 obj 1\\
3: 171:1 319:1 obj 1\\
1: 171:1 320:1 obj 1\\
2: 172:1 318:1 obj 1\\
1: 173:1 315:1 obj 1\\
1: 174:1 313:1 obj 1\\
2: 175:1 315:1 obj 1\\
2: 176:1 311:1 obj 1\\
2: 177:1 314:1 obj 1\\
1: 177:1 316:1 obj 1\\
2: 178:1 310:1 obj 1\\
1: 178:1 317:1 obj 1\\
1: 179:1 309:1 obj 1\\
1: 180:1 308:1 obj 1\\
2: 180:1 316:1 obj 1\\
3: 181:1 306:1 obj 1\\
1: 181:1 307:1 obj 1\\
1: 182:1 304:1 obj 1\\
2: 182:1 305:1 obj 1\\
1: 183:1 303:1 obj 1\\
1: 184:1 302:1 obj 1\\
1: 185:1 301:1 obj 1\\
2: 186:1 300:1 obj 1\\
2: 186:1 303:1 obj 1\\
2: 187:1 299:1 obj 1\\
2: 188:1 298:1 obj 1\\
1: 189:1 297:1 obj 1\\
2: 189:1 298:1 obj 1\\
2: 190:1 296:1 obj 1\\
1: 191:1 295:1 obj 1\\
2: 191:1 296:1 obj 1\\
2: 192:1 294:1 obj 1\\
1: 192:1 311:1 obj 1\\
1: 193:1 299:1 obj 1\\
1: 193:1 302:1 obj 1\\
2: 195:1 290:1 obj 1\\
2: 196:1 289:1 obj 1\\
1: 197:1 288:1 obj 1\\
1: 197:1 311:1 obj 1\\
1: 198:1 292:1 obj 1\\
1: 199:1 287:1 obj 1\\
2: 200:1 292:1 obj 1\\
1: 201:1 286:1 obj 1\\
3: 202:1 285:1 obj 1\\
3: 203:1 284:1 obj 1\\
1: 204:1 292:1 obj 1\\
1: 205:1 283:1 obj 1\\
1: 205:1 292:1 obj 1\\
1: 205:1 305:1 obj 1\\
2: 206:1 282:1 obj 1\\
1: 206:1 285:1 obj 1\\
1: 207:1 279:1 obj 1\\
1: 208:1 280:1 obj 1\\
2: 208:1 281:1 obj 1\\
1: 209:1 278:1 obj 1\\
1: 209:1 309:1 obj 1\\
1: 210:1 277:1 obj 1\\
1: 211:1 276:1 obj 1\\
1: 212:1 275:1 obj 1\\
1: 213:1 273:1 obj 1\\
1: 214:1 271:1 obj 1\\
4: 214:1 293:1 obj 1\\
2: 215:1 270:1 obj 1\\
3: 216:1 269:1 obj 1\\
1: 216:1 270:1 obj 1\\
1: 216:1 275:1 obj 1\\
2: 217:1 268:1 obj 1\\
1: 218:1 267:1 obj 1\\
1: 219:1 266:1 obj 1\\
2: 219:1 268:1 obj 1\\
3: 220:1 265:1 obj 1\\
1: 221:1 272:1 obj 1\\
1: 222:1 264:1 obj 1\\
2: 223:1 263:1 obj 1\\
1: 224:1 274:1 obj 1\\
1: 225:1 262:1 obj 1\\
2: 226:1 261:1 obj 1\\
2: 227:1 260:1 obj 1\\
1: 227:1 281:1 obj 1\\
1: 228:1 258:1 obj 1\\
2: 229:1 258:1 obj 1\\
1: 229:1 273:1 obj 1\\
2: 230:1 259:1 obj 1\\
1: 231:1 257:1 obj 1\\
1: 232:1 256:1 obj 1\\
1: 233:1 255:1 obj 1\\
3: 234:1 254:1 obj 1\\
1: 235:1 253:1 obj 1\\
1: 236:1 253:1 obj 1\\
1: 237:1 252:1 obj 1\\
1: 237:1 254:1 obj 1\\
1: 237:1 255:1 obj 1\\
2: 237:1 256:1 obj 1\\
1: 238:1 251:1 obj 1\\
1: 238:1 257:1 obj 1\\
1: 239:1 249:1 obj 1\\
1: 240:1 248:1 obj 1\\
1: 241:1 247:1 obj 1\\
2: 242:1 248:1 obj 1\\
1: 242:1 253:1 obj 1\\
3: 243:1 250:1 obj 1\\
1: 243:1 259:1 obj 1\\
1: 244:1 246:1 obj 1\\
1: 245:2 obj 1\\
1: 246:2 obj 1\\
1: 247:2 obj 1\\
1: 272:1 289:1 obj 1\\
1: 287:1 309:1 obj 1\\
1: 302:1 313:1 obj 1\\
1: 316:1 321:1 obj 1\\
1: 333:-1 obj 0\\
1: 382:-1 obj 0\\
1: 387:-1 obj 0\\
1: 401:-1 obj 0\\
1: 413:-1 obj 0\\
2: 416:-1 obj 0\\
1: 419:-1 obj 0\\
2: 426:-1 obj 0\\
1: 427:-1 obj 0\\
4: 429:-1 obj 0\\
1: 447:-1 obj 0\\
1: 463:-1 obj 0\\
1: 466:-1 obj 0\\
4: 477:-1 obj 0\\
1: 223:1 295:1 obj 1\\
1: 239:1 312:1 obj 1\\
0.5: 249:2 obj 1\\
0.5: 262:2 obj 1\\
0.5: 263:2 obj 1\\
1: 80:1 436:1 obj 1\\
1: 124:1 399:1 obj 1\\
1: 194:1 311:1 obj 1\\
1: 225:1 291:1 obj 1\\
1: 146:1 363:1 obj 1\\
1: 152:1 353:1 obj 1\\
1: 133:1 374:1 obj 1\\
1: 190:1 301:1 obj 1\\






File: BPP_1000_1000_0.2_0.8_4.txt  Instance No. 1
Wed Feb 25 13:58:57 2015

LP0 Time: 1.73 IPTime: 1.73 The best integer solution (520):

1: 0:1 480:1 obj 1\\
3: 1:1 479:1 obj 1\\
2: 2:1 480:1 obj 1\\
3: 3:1 478:1 obj 1\\
3: 4:1 477:1 obj 1\\
2: 5:1 476:1 obj 1\\
2: 6:1 475:1 obj 1\\
1: 7:1 474:1 obj 1\\
1: 8:1 473:1 obj 1\\
2: 8:1 475:1 obj 1\\
3: 9:1 471:1 obj 1\\
1: 10:1 470:1 obj 1\\
1: 10:1 472:1 obj 1\\
2: 11:1 468:1 obj 1\\
1: 12:1 467:1 obj 1\\
2: 12:1 469:1 obj 1\\
1: 12:1 476:1 obj 1\\
1: 13:1 466:1 obj 1\\
2: 14:1 obj 1\\
3: 14:1 466:1 obj 1\\
1: 15:1 477:1 obj 1\\
5: 16:1 477:1 obj 1\\
1: 17:1 465:1 obj 1\\
1: 18:1 464:1 obj 1\\
1: 19:1 463:1 obj 1\\
1: 20:1 462:1 obj 1\\
1: 21:1 462:1 obj 1\\
1: 22:1 obj 1\\
1: 22:1 461:1 obj 1\\
1: 23:1 obj 1\\
1: 23:1 460:1 obj 1\\
1: 24:1 obj 1\\
2: 24:1 458:1 obj 1\\
1: 25:1 obj 1\\
2: 25:1 457:1 obj 1\\
1: 26:1 459:1 obj 1\\
1: 27:1 456:1 obj 1\\
2: 28:1 455:1 obj 1\\
1: 28:1 462:1 obj 1\\
1: 29:1 obj 1\\
1: 29:1 454:1 obj 1\\
1: 30:1 453:1 obj 1\\
1: 31:1 452:1 obj 1\\
1: 32:1 obj 1\\
1: 32:1 451:1 obj 1\\
1: 33:1 obj 1\\
1: 33:1 450:1 obj 1\\
1: 34:1 449:1 obj 1\\
1: 35:1 448:1 obj 1\\
1: 35:1 449:1 obj 1\\
1: 35:1 453:1 obj 1\\
1: 35:1 456:1 obj 1\\
2: 35:1 459:1 obj 1\\
1: 36:1 447:1 obj 1\\
1: 37:1 444:1 obj 1\\
1: 38:1 443:1 obj 1\\
1: 39:1 442:1 obj 1\\
1: 39:1 445:1 obj 1\\
2: 40:1 441:1 obj 1\\
1: 41:1 439:1 obj 1\\
2: 41:1 447:1 obj 1\\
1: 42:1 438:1 obj 1\\
2: 43:1 437:1 obj 1\\
1: 43:1 440:1 obj 1\\
2: 43:1 463:1 obj 1\\
1: 44:1 436:1 obj 1\\
2: 44:1 446:1 obj 1\\
2: 45:1 449:1 obj 1\\
2: 46:1 435:1 obj 1\\
1: 47:1 434:1 obj 1\\
2: 48:1 433:1 obj 1\\
1: 49:1 432:1 obj 1\\
1: 50:1 432:1 obj 1\\
1: 51:1 431:1 obj 1\\
1: 51:1 434:1 obj 1\\
3: 52:1 430:1 obj 1\\
2: 53:1 429:1 obj 1\\
2: 54:1 428:1 obj 1\\
2: 55:1 425:1 obj 1\\
1: 56:1 424:1 obj 1\\
2: 57:1 423:1 obj 1\\
1: 57:1 424:1 obj 1\\
1: 58:1 422:1 obj 1\\
3: 58:1 427:1 obj 1\\
1: 59:1 425:1 obj 1\\
2: 60:1 426:1 obj 1\\
1: 61:1 421:1 obj 1\\
1: 62:1 420:1 obj 1\\
2: 63:1 419:1 obj 1\\
1: 64:1 427:1 obj 1\\
1: 65:1 obj 1\\
3: 65:1 418:1 obj 1\\
2: 66:1 416:1 obj 1\\
2: 67:1 415:1 obj 1\\
2: 68:1 414:1 obj 1\\
1: 69:1 417:1 obj 1\\
3: 69:1 426:1 obj 1\\
2: 70:1 429:1 obj 1\\
1: 71:1 412:1 obj 1\\
3: 71:1 416:1 obj 1\\
2: 72:1 411:1 obj 1\\
1: 73:1 obj 1\\
1: 73:1 410:1 obj 1\\
1: 74:1 obj 1\\
2: 74:1 409:1 obj 1\\
1: 75:1 413:1 obj 1\\
3: 76:1 413:1 obj 1\\
2: 77:1 407:1 obj 1\\
1: 78:1 408:1 obj 1\\
5: 78:1 429:1 obj 1\\
1: 79:1 406:1 obj 1\\
2: 79:1 419:1 obj 1\\
1: 80:1 405:1 obj 1\\
2: 81:1 405:1 obj 1\\
2: 82:1 414:1 obj 1\\
1: 82:1 415:1 obj 1\\
3: 83:1 404:1 obj 1\\
1: 84:1 403:1 obj 1\\
1: 85:1 obj 1\\
1: 85:1 402:1 obj 1\\
2: 86:1 401:1 obj 1\\
2: 87:1 400:1 obj 1\\
2: 88:1 399:1 obj 1\\
2: 89:1 398:1 obj 1\\
1: 90:1 397:1 obj 1\\
3: 91:1 396:1 obj 1\\
1: 92:1 399:1 obj 1\\
1: 93:1 394:1 obj 1\\
1: 94:1 393:1 obj 1\\
1: 94:1 394:1 obj 1\\
2: 95:1 392:1 obj 1\\
1: 95:1 395:1 obj 1\\
2: 95:1 401:1 obj 1\\
1: 96:1 391:1 obj 1\\
1: 96:1 400:1 obj 1\\
2: 97:1 389:1 obj 1\\
1: 98:1 388:1 obj 1\\
1: 99:1 387:1 obj 1\\
1: 100:1 387:1 obj 1\\
1: 101:1 386:1 obj 1\\
1: 101:1 388:1 obj 1\\
1: 102:1 385:1 obj 1\\
1: 103:1 384:1 obj 1\\
1: 103:1 389:1 obj 1\\
1: 104:1 383:1 obj 1\\
2: 105:1 382:1 obj 1\\
1: 106:1 381:1 obj 1\\
3: 107:1 382:1 obj 1\\
1: 107:1 390:1 obj 1\\
2: 108:1 387:1 obj 1\\
3: 109:1 381:1 obj 1\\
1: 110:1 380:1 obj 1\\
1: 111:1 379:1 obj 1\\
1: 112:1 obj 1\\
1: 112:1 378:1 obj 1\\
1: 113:1 377:1 obj 1\\
2: 114:1 376:1 obj 1\\
1: 114:1 379:1 obj 1\\
2: 115:1 375:1 obj 1\\
1: 116:1 372:1 obj 1\\
1: 117:1 obj 1\\
1: 117:1 371:1 obj 1\\
1: 118:1 370:1 obj 1\\
1: 118:1 380:1 obj 1\\
1: 119:1 369:1 obj 1\\
1: 119:1 372:1 obj 1\\
1: 120:1 obj 1\\
1: 120:1 368:1 obj 1\\
1: 121:1 367:1 obj 1\\
2: 122:1 366:1 obj 1\\
1: 123:1 365:1 obj 1\\
1: 123:1 367:1 obj 1\\
3: 124:1 363:1 obj 1\\
1: 125:1 362:1 obj 1\\
3: 126:1 360:1 obj 1\\
1: 127:1 359:1 obj 1\\
1: 127:1 362:1 obj 1\\
2: 127:1 363:1 obj 1\\
2: 128:1 357:1 obj 1\\
1: 128:1 364:1 obj 1\\
2: 129:1 356:1 obj 1\\
1: 129:1 362:1 obj 1\\
1: 130:1 355:1 obj 1\\
2: 131:1 354:1 obj 1\\
2: 132:1 358:1 obj 1\\
1: 132:1 361:1 obj 1\\
1: 133:1 353:1 obj 1\\
1: 133:1 361:1 obj 1\\
3: 134:1 352:1 obj 1\\
1: 135:1 352:1 obj 1\\
1: 136:1 351:1 obj 1\\
3: 137:1 350:1 obj 1\\
1: 138:1 349:1 obj 1\\
1: 138:1 350:1 obj 1\\
1: 138:1 352:1 obj 1\\
2: 139:1 348:1 obj 1\\
1: 139:1 364:1 obj 1\\
1: 140:1 355:1 obj 1\\
1: 141:1 355:1 obj 1\\
1: 141:1 373:1 obj 1\\
1: 142:1 347:1 obj 1\\
2: 143:1 346:1 obj 1\\
2: 144:1 344:1 obj 1\\
2: 145:1 342:1 obj 1\\
1: 147:1 340:1 obj 1\\
2: 147:1 341:1 obj 1\\
2: 148:1 339:1 obj 1\\
1: 149:1 337:1 obj 1\\
3: 150:1 338:1 obj 1\\
1: 151:1 336:1 obj 1\\
1: 152:1 335:1 obj 1\\
2: 153:1 334:1 obj 1\\
1: 154:1 336:1 obj 1\\
1: 154:1 342:1 obj 1\\
3: 154:1 345:1 obj 1\\
1: 155:1 333:1 obj 1\\
1: 156:1 332:1 obj 1\\
1: 157:1 331:1 obj 1\\
1: 158:1 343:1 obj 1\\
1: 159:1 330:1 obj 1\\
1: 160:1 329:1 obj 1\\
1: 161:1 obj 1\\
1: 161:1 328:1 obj 1\\
1: 162:1 327:1 obj 1\\
1: 162:1 337:1 obj 1\\
1: 163:1 326:1 obj 1\\
1: 164:1 325:1 obj 1\\
1: 164:1 336:1 obj 1\\
1: 165:1 332:1 obj 1\\
1: 165:1 344:1 obj 1\\
1: 166:1 324:1 obj 1\\
1: 166:1 336:1 obj 1\\
1: 167:1 323:1 obj 1\\
2: 167:1 333:1 obj 1\\
3: 168:1 322:1 obj 1\\
1: 168:1 332:1 obj 1\\
1: 169:1 321:1 obj 1\\
1: 170:1 320:1 obj 1\\
3: 171:1 319:1 obj 1\\
1: 171:1 320:1 obj 1\\
2: 172:1 318:1 obj 1\\
1: 173:1 315:1 obj 1\\
1: 174:1 313:1 obj 1\\
2: 175:1 315:1 obj 1\\
2: 176:1 311:1 obj 1\\
2: 177:1 314:1 obj 1\\
1: 177:1 316:1 obj 1\\
2: 178:1 310:1 obj 1\\
1: 178:1 317:1 obj 1\\
1: 179:1 309:1 obj 1\\
1: 180:1 308:1 obj 1\\
2: 180:1 316:1 obj 1\\
3: 181:1 306:1 obj 1\\
1: 181:1 307:1 obj 1\\
1: 182:1 304:1 obj 1\\
2: 182:1 305:1 obj 1\\
1: 183:1 303:1 obj 1\\
1: 184:1 302:1 obj 1\\
1: 185:1 301:1 obj 1\\
2: 186:1 300:1 obj 1\\
2: 186:1 303:1 obj 1\\
2: 187:1 299:1 obj 1\\
2: 188:1 298:1 obj 1\\
1: 189:1 297:1 obj 1\\
2: 189:1 298:1 obj 1\\
2: 190:1 296:1 obj 1\\
1: 191:1 295:1 obj 1\\
2: 191:1 296:1 obj 1\\
2: 192:1 294:1 obj 1\\
1: 192:1 311:1 obj 1\\
1: 193:1 299:1 obj 1\\
1: 193:1 302:1 obj 1\\
2: 195:1 290:1 obj 1\\
2: 196:1 289:1 obj 1\\
1: 197:1 288:1 obj 1\\
1: 197:1 311:1 obj 1\\
1: 198:1 292:1 obj 1\\
1: 199:1 287:1 obj 1\\
2: 200:1 292:1 obj 1\\
1: 201:1 286:1 obj 1\\
3: 202:1 285:1 obj 1\\
3: 203:1 284:1 obj 1\\
1: 204:1 292:1 obj 1\\
1: 205:1 283:1 obj 1\\
1: 205:1 292:1 obj 1\\
1: 205:1 305:1 obj 1\\
2: 206:1 282:1 obj 1\\
1: 206:1 285:1 obj 1\\
1: 207:1 279:1 obj 1\\
1: 208:1 280:1 obj 1\\
2: 208:1 281:1 obj 1\\
1: 209:1 278:1 obj 1\\
1: 209:1 309:1 obj 1\\
1: 210:1 277:1 obj 1\\
1: 211:1 276:1 obj 1\\
1: 212:1 275:1 obj 1\\
1: 213:1 273:1 obj 1\\
1: 214:1 271:1 obj 1\\
4: 214:1 293:1 obj 1\\
2: 215:1 270:1 obj 1\\
3: 216:1 269:1 obj 1\\
1: 216:1 270:1 obj 1\\
1: 216:1 275:1 obj 1\\
2: 217:1 268:1 obj 1\\
1: 218:1 267:1 obj 1\\
1: 219:1 266:1 obj 1\\
2: 219:1 268:1 obj 1\\
3: 220:1 265:1 obj 1\\
1: 221:1 272:1 obj 1\\
1: 222:1 264:1 obj 1\\
2: 223:1 263:1 obj 1\\
1: 224:1 274:1 obj 1\\
1: 225:1 262:1 obj 1\\
2: 226:1 261:1 obj 1\\
2: 227:1 260:1 obj 1\\
1: 227:1 281:1 obj 1\\
1: 228:1 258:1 obj 1\\
2: 229:1 258:1 obj 1\\
1: 229:1 273:1 obj 1\\
2: 230:1 259:1 obj 1\\
1: 231:1 257:1 obj 1\\
1: 232:1 256:1 obj 1\\
1: 233:1 255:1 obj 1\\
3: 234:1 254:1 obj 1\\
1: 235:1 253:1 obj 1\\
1: 236:1 253:1 obj 1\\
1: 237:1 252:1 obj 1\\
1: 237:1 254:1 obj 1\\
1: 237:1 255:1 obj 1\\
2: 237:1 256:1 obj 1\\
1: 238:1 251:1 obj 1\\
1: 238:1 257:1 obj 1\\
1: 239:1 249:1 obj 1\\
1: 240:1 248:1 obj 1\\
1: 241:1 247:1 obj 1\\
2: 242:1 248:1 obj 1\\
1: 242:1 253:1 obj 1\\
3: 243:1 250:1 obj 1\\
1: 243:1 259:1 obj 1\\
1: 244:1 246:1 obj 1\\
1: 245:2 obj 1\\
1: 246:2 obj 1\\
1: 247:2 obj 1\\
1: 272:1 289:1 obj 1\\
1: 287:1 309:1 obj 1\\
1: 302:1 313:1 obj 1\\
1: 316:1 321:1 obj 1\\
1: 223:1 295:1 obj 1\\
1: 239:1 312:1 obj 1\\
1: 80:1 436:1 obj 1\\
1: 124:1 399:1 obj 1\\
1: 194:1 311:1 obj 1\\
1: 225:1 291:1 obj 1\\
1: 146:1 363:1 obj 1\\
1: 152:1 353:1 obj 1\\
1: 133:1 374:1 obj 1\\
1: 190:1 301:1 obj 1\\
1: 262:1 263:1 obj 1\\
1: 249:1 obj 1\\



The last LP solution 


File: BPP_1000_1000_0.2_0.8_4.txt  Instance No. 1
Wed Feb 25 13:58:57 2015

LP solution: lpval=519.5 lpbnd=520

1: 0:1 480:1 obj 1\\
3: 1:1 479:1 obj 1\\
2: 2:1 480:1 obj 1\\
3: 3:1 478:1 obj 1\\
3: 4:1 477:1 obj 1\\
2: 5:1 476:1 obj 1\\
2: 6:1 475:1 obj 1\\
1: 7:1 474:1 obj 1\\
1: 8:1 473:1 obj 1\\
2: 8:1 475:1 obj 1\\
3: 9:1 471:1 obj 1\\
1: 10:1 470:1 obj 1\\
1: 10:1 472:1 obj 1\\
2: 11:1 468:1 obj 1\\
1: 12:1 467:1 obj 1\\
2: 12:1 469:1 obj 1\\
1: 12:1 476:1 obj 1\\
1: 13:1 466:1 obj 1\\
2: 14:1 obj 1\\
3: 14:1 466:1 obj 1\\
1: 15:1 477:1 obj 1\\
5: 16:1 477:1 obj 1\\
1: 17:1 465:1 obj 1\\
1: 18:1 464:1 obj 1\\
1: 19:1 463:1 obj 1\\
1: 20:1 462:1 obj 1\\
1: 21:1 462:1 obj 1\\
1: 22:1 obj 1\\
1: 22:1 461:1 obj 1\\
1: 23:1 obj 1\\
1: 23:1 460:1 obj 1\\
1: 24:1 obj 1\\
2: 24:1 458:1 obj 1\\
1: 25:1 obj 1\\
2: 25:1 457:1 obj 1\\
1: 26:1 459:1 obj 1\\
1: 27:1 456:1 obj 1\\
2: 28:1 455:1 obj 1\\
1: 28:1 462:1 obj 1\\
1: 29:1 obj 1\\
1: 29:1 454:1 obj 1\\
1: 30:1 453:1 obj 1\\
1: 31:1 452:1 obj 1\\
1: 32:1 obj 1\\
1: 32:1 451:1 obj 1\\
1: 33:1 obj 1\\
1: 33:1 450:1 obj 1\\
1: 34:1 449:1 obj 1\\
1: 35:1 448:1 obj 1\\
1: 35:1 449:1 obj 1\\
1: 35:1 453:1 obj 1\\
1: 35:1 456:1 obj 1\\
2: 35:1 459:1 obj 1\\
1: 36:1 447:1 obj 1\\
1: 37:1 444:1 obj 1\\
1: 38:1 443:1 obj 1\\
1: 39:1 442:1 obj 1\\
1: 39:1 445:1 obj 1\\
2: 40:1 441:1 obj 1\\
1: 41:1 439:1 obj 1\\
2: 41:1 447:1 obj 1\\
1: 42:1 438:1 obj 1\\
2: 43:1 437:1 obj 1\\
1: 43:1 440:1 obj 1\\
2: 43:1 463:1 obj 1\\
1: 44:1 436:1 obj 1\\
2: 44:1 446:1 obj 1\\
2: 45:1 449:1 obj 1\\
2: 46:1 435:1 obj 1\\
1: 47:1 434:1 obj 1\\
2: 48:1 433:1 obj 1\\
1: 49:1 432:1 obj 1\\
1: 50:1 432:1 obj 1\\
1: 51:1 431:1 obj 1\\
1: 51:1 434:1 obj 1\\
3: 52:1 430:1 obj 1\\
2: 53:1 429:1 obj 1\\
2: 54:1 428:1 obj 1\\
2: 55:1 425:1 obj 1\\
1: 56:1 424:1 obj 1\\
2: 57:1 423:1 obj 1\\
1: 57:1 424:1 obj 1\\
1: 58:1 422:1 obj 1\\
3: 58:1 427:1 obj 1\\
1: 59:1 425:1 obj 1\\
2: 60:1 426:1 obj 1\\
1: 61:1 421:1 obj 1\\
1: 62:1 420:1 obj 1\\
2: 63:1 419:1 obj 1\\
1: 64:1 427:1 obj 1\\
1: 65:1 obj 1\\
3: 65:1 418:1 obj 1\\
2: 66:1 416:1 obj 1\\
2: 67:1 415:1 obj 1\\
2: 68:1 414:1 obj 1\\
1: 69:1 417:1 obj 1\\
3: 69:1 426:1 obj 1\\
2: 70:1 429:1 obj 1\\
1: 71:1 412:1 obj 1\\
3: 71:1 416:1 obj 1\\
2: 72:1 411:1 obj 1\\
1: 73:1 obj 1\\
1: 73:1 410:1 obj 1\\
1: 74:1 obj 1\\
2: 74:1 409:1 obj 1\\
1: 75:1 413:1 obj 1\\
3: 76:1 413:1 obj 1\\
2: 77:1 407:1 obj 1\\
1: 78:1 408:1 obj 1\\
5: 78:1 429:1 obj 1\\
1: 79:1 406:1 obj 1\\
2: 79:1 419:1 obj 1\\
1: 80:1 405:1 obj 1\\
2: 81:1 405:1 obj 1\\
2: 82:1 414:1 obj 1\\
1: 82:1 415:1 obj 1\\
3: 83:1 404:1 obj 1\\
1: 84:1 403:1 obj 1\\
1: 85:1 obj 1\\
1: 85:1 402:1 obj 1\\
2: 86:1 401:1 obj 1\\
2: 87:1 400:1 obj 1\\
2: 88:1 399:1 obj 1\\
2: 89:1 398:1 obj 1\\
1: 90:1 397:1 obj 1\\
3: 91:1 396:1 obj 1\\
1: 92:1 399:1 obj 1\\
1: 93:1 394:1 obj 1\\
1: 94:1 393:1 obj 1\\
1: 94:1 394:1 obj 1\\
2: 95:1 392:1 obj 1\\
1: 95:1 395:1 obj 1\\
2: 95:1 401:1 obj 1\\
1: 96:1 391:1 obj 1\\
1: 96:1 400:1 obj 1\\
2: 97:1 389:1 obj 1\\
1: 98:1 388:1 obj 1\\
1: 99:1 387:1 obj 1\\
1: 100:1 387:1 obj 1\\
1: 101:1 386:1 obj 1\\
1: 101:1 388:1 obj 1\\
1: 102:1 385:1 obj 1\\
1: 103:1 384:1 obj 1\\
1: 103:1 389:1 obj 1\\
1: 104:1 383:1 obj 1\\
2: 105:1 382:1 obj 1\\
1: 106:1 381:1 obj 1\\
3: 107:1 382:1 obj 1\\
1: 107:1 390:1 obj 1\\
2: 108:1 387:1 obj 1\\
3: 109:1 381:1 obj 1\\
1: 110:1 380:1 obj 1\\
1: 111:1 379:1 obj 1\\
1: 112:1 obj 1\\
1: 112:1 378:1 obj 1\\
1: 113:1 377:1 obj 1\\
2: 114:1 376:1 obj 1\\
1: 114:1 379:1 obj 1\\
2: 115:1 375:1 obj 1\\
1: 116:1 372:1 obj 1\\
1: 117:1 obj 1\\
1: 117:1 371:1 obj 1\\
1: 118:1 370:1 obj 1\\
1: 118:1 380:1 obj 1\\
1: 119:1 369:1 obj 1\\
1: 119:1 372:1 obj 1\\
1: 120:1 obj 1\\
1: 120:1 368:1 obj 1\\
1: 121:1 367:1 obj 1\\
2: 122:1 366:1 obj 1\\
1: 123:1 365:1 obj 1\\
1: 123:1 367:1 obj 1\\
3: 124:1 363:1 obj 1\\
1: 125:1 362:1 obj 1\\
3: 126:1 360:1 obj 1\\
1: 127:1 359:1 obj 1\\
1: 127:1 362:1 obj 1\\
2: 127:1 363:1 obj 1\\
2: 128:1 357:1 obj 1\\
1: 128:1 364:1 obj 1\\
2: 129:1 356:1 obj 1\\
1: 129:1 362:1 obj 1\\
1: 130:1 355:1 obj 1\\
2: 131:1 354:1 obj 1\\
2: 132:1 358:1 obj 1\\
1: 132:1 361:1 obj 1\\
1: 133:1 353:1 obj 1\\
1: 133:1 361:1 obj 1\\
3: 134:1 352:1 obj 1\\
1: 135:1 352:1 obj 1\\
1: 136:1 351:1 obj 1\\
3: 137:1 350:1 obj 1\\
1: 138:1 349:1 obj 1\\
1: 138:1 350:1 obj 1\\
1: 138:1 352:1 obj 1\\
2: 139:1 348:1 obj 1\\
1: 139:1 364:1 obj 1\\
1: 140:1 355:1 obj 1\\
1: 141:1 355:1 obj 1\\
1: 141:1 373:1 obj 1\\
1: 142:1 347:1 obj 1\\
2: 143:1 346:1 obj 1\\
2: 144:1 344:1 obj 1\\
2: 145:1 342:1 obj 1\\
1: 147:1 340:1 obj 1\\
2: 147:1 341:1 obj 1\\
2: 148:1 339:1 obj 1\\
1: 149:1 337:1 obj 1\\
3: 150:1 338:1 obj 1\\
1: 151:1 336:1 obj 1\\
1: 152:1 335:1 obj 1\\
2: 153:1 334:1 obj 1\\
1: 154:1 336:1 obj 1\\
1: 154:1 342:1 obj 1\\
3: 154:1 345:1 obj 1\\
1: 155:1 333:1 obj 1\\
1: 156:1 332:1 obj 1\\
1: 157:1 331:1 obj 1\\
1: 158:1 343:1 obj 1\\
1: 159:1 330:1 obj 1\\
1: 160:1 329:1 obj 1\\
1: 161:1 obj 1\\
1: 161:1 328:1 obj 1\\
1: 162:1 327:1 obj 1\\
1: 162:1 337:1 obj 1\\
1: 163:1 326:1 obj 1\\
1: 164:1 325:1 obj 1\\
1: 164:1 336:1 obj 1\\
1: 165:1 332:1 obj 1\\
1: 165:1 344:1 obj 1\\
1: 166:1 324:1 obj 1\\
1: 166:1 336:1 obj 1\\
1: 167:1 323:1 obj 1\\
2: 167:1 333:1 obj 1\\
3: 168:1 322:1 obj 1\\
1: 168:1 332:1 obj 1\\
1: 169:1 321:1 obj 1\\
1: 170:1 320:1 obj 1\\
3: 171:1 319:1 obj 1\\
1: 171:1 320:1 obj 1\\
2: 172:1 318:1 obj 1\\
1: 173:1 315:1 obj 1\\
1: 174:1 313:1 obj 1\\
2: 175:1 315:1 obj 1\\
2: 176:1 311:1 obj 1\\
2: 177:1 314:1 obj 1\\
1: 177:1 316:1 obj 1\\
2: 178:1 310:1 obj 1\\
1: 178:1 317:1 obj 1\\
1: 179:1 309:1 obj 1\\
1: 180:1 308:1 obj 1\\
2: 180:1 316:1 obj 1\\
3: 181:1 306:1 obj 1\\
1: 181:1 307:1 obj 1\\
1: 182:1 304:1 obj 1\\
2: 182:1 305:1 obj 1\\
1: 183:1 303:1 obj 1\\
1: 184:1 302:1 obj 1\\
1: 185:1 301:1 obj 1\\
2: 186:1 300:1 obj 1\\
2: 186:1 303:1 obj 1\\
2: 187:1 299:1 obj 1\\
2: 188:1 298:1 obj 1\\
1: 189:1 297:1 obj 1\\
2: 189:1 298:1 obj 1\\
2: 190:1 296:1 obj 1\\
1: 191:1 295:1 obj 1\\
2: 191:1 296:1 obj 1\\
2: 192:1 294:1 obj 1\\
1: 192:1 311:1 obj 1\\
1: 193:1 299:1 obj 1\\
1: 193:1 302:1 obj 1\\
2: 195:1 290:1 obj 1\\
2: 196:1 289:1 obj 1\\
1: 197:1 288:1 obj 1\\
1: 197:1 311:1 obj 1\\
1: 198:1 292:1 obj 1\\
1: 199:1 287:1 obj 1\\
2: 200:1 292:1 obj 1\\
1: 201:1 286:1 obj 1\\
3: 202:1 285:1 obj 1\\
3: 203:1 284:1 obj 1\\
1: 204:1 292:1 obj 1\\
1: 205:1 283:1 obj 1\\
1: 205:1 292:1 obj 1\\
1: 205:1 305:1 obj 1\\
2: 206:1 282:1 obj 1\\
1: 206:1 285:1 obj 1\\
1: 207:1 279:1 obj 1\\
1: 208:1 280:1 obj 1\\
2: 208:1 281:1 obj 1\\
1: 209:1 278:1 obj 1\\
1: 209:1 309:1 obj 1\\
1: 210:1 277:1 obj 1\\
1: 211:1 276:1 obj 1\\
1: 212:1 275:1 obj 1\\
1: 213:1 273:1 obj 1\\
1: 214:1 271:1 obj 1\\
4: 214:1 293:1 obj 1\\
2: 215:1 270:1 obj 1\\
3: 216:1 269:1 obj 1\\
1: 216:1 270:1 obj 1\\
1: 216:1 275:1 obj 1\\
2: 217:1 268:1 obj 1\\
1: 218:1 267:1 obj 1\\
1: 219:1 266:1 obj 1\\
2: 219:1 268:1 obj 1\\
3: 220:1 265:1 obj 1\\
1: 221:1 272:1 obj 1\\
1: 222:1 264:1 obj 1\\
2: 223:1 263:1 obj 1\\
1: 224:1 274:1 obj 1\\
1: 225:1 262:1 obj 1\\
2: 226:1 261:1 obj 1\\
2: 227:1 260:1 obj 1\\
1: 227:1 281:1 obj 1\\
1: 228:1 258:1 obj 1\\
2: 229:1 258:1 obj 1\\
1: 229:1 273:1 obj 1\\
2: 230:1 259:1 obj 1\\
1: 231:1 257:1 obj 1\\
1: 232:1 256:1 obj 1\\
1: 233:1 255:1 obj 1\\
3: 234:1 254:1 obj 1\\
1: 235:1 253:1 obj 1\\
1: 236:1 253:1 obj 1\\
1: 237:1 252:1 obj 1\\
1: 237:1 254:1 obj 1\\
1: 237:1 255:1 obj 1\\
2: 237:1 256:1 obj 1\\
1: 238:1 251:1 obj 1\\
1: 238:1 257:1 obj 1\\
1: 239:1 249:1 obj 1\\
1: 240:1 248:1 obj 1\\
1: 241:1 247:1 obj 1\\
2: 242:1 248:1 obj 1\\
1: 242:1 253:1 obj 1\\
3: 243:1 250:1 obj 1\\
1: 243:1 259:1 obj 1\\
1: 244:1 246:1 obj 1\\
1: 245:2 obj 1\\
1: 246:2 obj 1\\
1: 247:2 obj 1\\
1: 272:1 289:1 obj 1\\
1: 287:1 309:1 obj 1\\
1: 302:1 313:1 obj 1\\
1: 316:1 321:1 obj 1\\
1: 333:-1 obj 0\\
1: 382:-1 obj 0\\
1: 387:-1 obj 0\\
1: 401:-1 obj 0\\
1: 413:-1 obj 0\\
2: 416:-1 obj 0\\
1: 419:-1 obj 0\\
2: 426:-1 obj 0\\
1: 427:-1 obj 0\\
4: 429:-1 obj 0\\
1: 447:-1 obj 0\\
1: 463:-1 obj 0\\
1: 466:-1 obj 0\\
4: 477:-1 obj 0\\
1: 223:1 295:1 obj 1\\
1: 239:1 312:1 obj 1\\
0.5: 249:2 obj 1\\
0.5: 262:2 obj 1\\
0.5: 263:2 obj 1\\
1: 80:1 436:1 obj 1\\
1: 124:1 399:1 obj 1\\
1: 194:1 311:1 obj 1\\
1: 225:1 291:1 obj 1\\
1: 146:1 363:1 obj 1\\
1: 152:1 353:1 obj 1\\
1: 133:1 374:1 obj 1\\
1: 190:1 301:1 obj 1\\



